$molecule
0 1
N
N,1,R1

R1=0.9
$end

$rem
method      eom-ccsd
basis       6-311G
cc_symmetry false
ee_singlets [12]
ee_triplets [12]
$end

@@@

$molecule
0 1
N
N,1,R1

R1=1.0
$end

$rem
method      eom-ccsd
basis       6-311G
cc_symmetry false
ee_singlets [12]
ee_triplets [12]
$end

@@@

$molecule
0 1
N
N,1,R1

R1=1.1
$end

$rem
method      eom-ccsd
basis       6-311G
cc_symmetry false
ee_singlets [12]
ee_triplets [12]
$end

@@@

$molecule
0 1
N
N,1,R1

R1=1.2
$end

$rem
method      eom-ccsd
basis       6-311G
cc_symmetry false
ee_singlets [12]
ee_triplets [12]
$end

@@@

$molecule
0 1
N
N,1,R1

R1=1.3
$end

$rem
method      eom-ccsd
basis       6-311G
cc_symmetry false
ee_singlets [12]
ee_triplets [12]
$end

@@@

$molecule
0 1
N
N,1,R1

R1=1.3
$end

$rem
method      eom-ccsd
basis       6-311G
cc_symmetry false
ee_singlets [12]
ee_triplets [12]
$end

@@@

$molecule
0 1
N
N,1,R1

R1=1.4
$end

$rem
method      eom-ccsd
basis       6-311G
cc_symmetry false
ee_singlets [12]
ee_triplets [12]
$end

@@@

$molecule
0 1
N
N,1,R1

R1=1.5
$end

$rem
method      eom-ccsd
basis       6-311G
cc_symmetry false
ee_singlets [12]
ee_triplets [12]
$end

@@@

$molecule
0 1
N
N,1,R1

R1=1.6
$end

$rem
method      eom-ccsd
basis       6-311G
cc_symmetry false
ee_singlets [12]
ee_triplets [12]
$end

@@@

$molecule
0 1
N
N,1,R1

R1=1.7
$end

$rem
method      eom-ccsd
basis       6-311G
cc_symmetry false
ee_singlets [12]
ee_triplets [12]
$end

@@@

$molecule
0 1
N
N,1,R1

R1=1.8
$end

$rem
method      eom-ccsd
basis       6-311G
cc_symmetry false
ee_singlets [12]
ee_triplets [12]
$end

@@@

$molecule
0 1
N
N,1,R1

R1=1.9
$end

$rem
method      eom-ccsd
basis       6-311G
cc_symmetry false
ee_singlets [12]
ee_triplets [12]
$end
